Geographic Exponential Decay
40 16 180 91 160 316 211 248 93 23 8 234 205 274 104 81 67 287 101 85 191 15 313 207 177 304 216 268 113 18 75 258 307 28 54 94 48 58 173 176 301
p edge 320 1264
e 0 292 1.0
e 0 71 3.0
e 1 298 1.0
e 2 54 48.0
e 3 71 2.0
e 4 269 1.0
e 5 189 1.0
e 6 112 1.0
e 6 266 4.0
e 7 107 1.0
e 7 257 4.0
e 7 293 5.0
e 7 229 1.0
e 8 253 27.0
e 8 263 90.0
e 8 224 71.0
e 8 297 67.0
e 8 71 53.0
e 8 121 69.0
e 8 41 98.0
e 8 30 75.0
e 8 144 43.0
e 8 83 25.0
e 8 11 24.0
e 8 270 70.0
e 8 3 45.0
e 8 42 45.0
e 8 32 67.0
e 8 175 19.0
e 8 14 27.0
e 8 43 56.0
e 8 285 20.0
e 8 296 89.0
e 8 310 9.0
e 8 60 13.0
e 8 47 95.0
e 8 136 47.0
e 8 92 31.0
e 8 115 13.0
e 8 74 62.0
e 9 80 1.0
e 10 85 50.0
e 11 227 16.0
e 12 57 2.0
e 12 99 5.0
e 13 202 2.0
e 15 67 92.0
e 15 234 52.0
e 15 99 18.0
e 15 65 14.0
e 15 211 61.0
e 15 143 10.0
e 15 121 56.0
e 15 150 65.0
e 15 237 89.0
e 15 235 90.0
e 15 152 80.0
e 15 196 57.0
e 15 220 94.0
e 15 141 59.0
e 15 247 72.0
e 15 280 7.0
e 15 163 3.0
e 15 34 94.0
e 15 124 83.0
e 15 171 43.0
e 15 214 6.0
e 15 215 35.0
e 15 302 11.0
e 15 114 33.0
e 15 199 20.0
e 15 103 61.0
e 15 61 65.0
e 16 289 57.0
e 16 43 87.0
e 16 1 68.0
e 16 291 80.0
e 16 197 34.0
e 16 174 24.0
e 16 309 67.0
e 16 27 88.0
e 16 125 95.0
e 16 253 12.0
e 16 28 49.0
e 16 296 10.0
e 16 278 52.0
e 16 21 58.0
e 16 299 15.0
e 16 78 47.0
e 16 18 36.0
e 16 307 67.0
e 16 228 93.0
e 16 52 88.0
e 16 29 18.0
e 16 138 13.0
e 16 229 92.0
e 16 223 69.0
e 16 41 42.0
e 16 56 35.0
e 16 277 21.0
e 17 125 2.0
e 17 292 5.0
e 18 113 33.0
e 18 9 29.0
e 18 191 95.0
e 18 224 44.0
e 18 294 1.0
e 18 297 72.0
e 18 158 93.0
e 18 62 76.0
e 18 201 67.0
e 18 213 84.0
e 18 190 78.0
e 18 304 8.0
e 18 289 69.0
e 18 210 72.0
e 18 274 27.0
e 18 68 31.0
e 18 61 4.0
e 18 114 81.0
e 18 95 65.0
e 18 35 30.0
e 18 36 16.0
e 18 38 83.0
e 18 50 19.0
e 18 135 95.0
e 18 179 28.0
e 18 295 73.0
e 19 44 1.0
e 20 22 1.0
e 21 187 10.0
e 21 274 84.0
e 21 120 6.0
e 23 156 77.0
e 23 16 67.0
e 23 186 7.0
e 23 64 99.0
e 23 195 38.0
e 23 310 45.0
e 23 67 72.0
e 23 63 99.0
e 23 176 31.0
e 23 318 29.0
e 23 58 58.0
e 23 292 41.0
e 23 128 5.0
e 23 149 26.0
e 23 133 52.0
e 23 120 17.0
e 23 43 13.0
e 23 148 46.0
e 23 151 46.0
e 23 116 22.0
e 23 304 40.0
e 23 17 91.0
e 23 312 62.0
e 23 313 34.0
e 23 233 77.0
e 23 18 44.0
e 23 202 51.0
e 24 37 2.0
e 25 36 2.0
e 26 185 2.0
e 28 313 29.0
e 28 244 24.0
e 28 41 99.0
e 28 153 30.0
e 28 270 12.0
e 28 299 30.0
e 28 226 29.0
e 28 224 14.0
e 28 134 80.0
e 28 30 37.0
e 28 159 37.0
e 28 255 73.0
e 28 39 96.0
e 28 53 4.0
e 28 75 72.0
e 28 42 84.0
e 28 43 3.0
e 28 7 62.0
e 28 177 20.0
e 28 257 62.0
e 28 206 93.0
e 28 236 26.0
e 28 8 2.0
e 28 36 41.0
e 28 67 37.0
e 28 108 52.0
e 31 156 1.0
e 33 182 5.0
e 33 125 5.0
e 34 224 3.0
e 36 208 10.0
e 38 132 6.0
e 38 93 80.0
e 38 239 4.0
e 39 288 2.0
e 39 33 3.0
e 39 120 10.0
e 40 221 1.0
e 45 285 1.0
e 46 8 14.0
e 48 44 20.0
e 48 313 94.0
e 48 193 2.0
e 48 138 80.0
e 48 42 28.0
e 48 87 77.0
e 48 217 89.0
e 48 196 69.0
e 48 284 88.0
e 48 143 26.0
e 48 246 46.0
e 48 252 9.0
e 48 147 1.0
e 48 292 81.0
e 48 288 77.0
e 48 34 76.0
e 48 115 83.0
e 48 45 77.0
e 48 168 26.0
e 48 8 49.0
e 48 289 66.0
e 48 248 26.0
e 48 308 92.0
e 48 216 35.0
e 48 82 54.0
e 48 20 27.0
e 48 187 21.0
e 49 90 2.0
e 49 101 69.0
e 49 54 48.0
e 49 201 11.0
e 51 7 5.0
e 51 198 1.0
e 52 21 4.0
e 52 166 10.0
e 52 265 5.0
e 53 15 59.0
e 54 229 51.0
e 54 236 47.0
e 54 233 94.0
e 54 192 69.0
e 54 62 61.0
e 54 22 28.0
e 54 267 55.0
e 54 138 100.0
e 54 272 12.0
e 54 170 1.0
e 54 251 56.0
e 54 206 32.0
e 54 294 38.0
e 54 65 18.0
e 54 159 51.0
e 54 56 20.0
e 54 25 26.0
e 54 217 97.0
e 54 135 4.0
e 54 127 54.0
e 54 38 90.0
e 54 128 91.0
e 54 61 14.0
e 54 280 99.0
e 54 147 52.0
e 55 151 12.0
e 55 185 8.0
e 55 262 7.0
e 55 114 6.0
e 58 67 18.0
e 58 51 16.0
e 58 95 16.0
e 58 209 35.0
e 58 308 27.0
e 58 145 57.0
e 58 234 61.0
e 58 196 91.0
e 58 256 84.0
e 58 191 76.0
e 58 180 7.0
e 58 179 34.0
e 58 115 99.0
e 58 24 81.0
e 58 160 31.0
e 58 105 19.0
e 58 120 9.0
e 58 170 54.0
e 58 261 75.0
e 58 80 47.0
e 58 272 45.0
e 58 84 98.0
e 58 124 11.0
e 58 177 92.0
e 58 155 89.0
e 58 68 81.0
e 59 307 39.0
e 63 222 2.0
e 66 202 1.0
e 67 6 67.0
e 67 150 96.0
e 67 304 42.0
e 67 9 37.0
e 67 59 96.0
e 67 245 63.0
e 67 3 76.0
e 67 181 80.0
e 67 162 85.0
e 67 139 21.0
e 67 53 81.0
e 67 0 37.0
e 67 147 79.0
e 67 104 25.0
e 67 223 97.0
e 67 284 42.0
e 67 285 21.0
e 67 165 67.0
e 67 209 83.0
e 67 260 65.0
e 67 107 43.0
e 67 218 98.0
e 67 145 48.0
e 68 221 2.0
e 68 185 3.0
e 69 167 2.0
e 70 6 1.0
e 72 280 1.0
e 73 307 68.0
e 74 235 11.0
e 75 132 21.0
e 75 94 60.0
e 75 197 76.0
e 75 136 78.0
e 75 101 75.0
e 75 27 77.0
e 75 10 63.0
e 75 60 49.0
e 75 224 30.0
e 75 95 87.0
e 75 86 62.0
e 75 292 89.0
e 75 270 51.0
e 75 165 56.0
e 75 87 97.0
e 75 40 17.0
e 75 243 15.0
e 75 149 40.0
e 75 66 16.0
e 75 271 16.0
e 75 15 43.0
e 75 267 8.0
e 75 84 15.0
e 75 113 84.0
e 75 302 48.0
e 75 68 47.0
e 76 297 1.0
e 77 297 1.0
e 77 130 24.0
e 79 52 1.0
e 79 49 6.0
e 79 220 5.0
e 79 110 5.0
e 79 207 89.0
e 79 81 32.0
e 79 50 9.0
e 81 168 62.0
e 81 18 76.0
e 81 90 37.0
e 81 204 78.0
e 81 139 20.0
e 81 277 12.0
e 81 279 88.0
e 81 278 51.0
e 81 213 76.0
e 81 302 67.0
e 81 149 98.0
e 81 165 21.0
e 81 209 75.0
e 81 39 19.0
e 81 100 8.0
e 81 4 81.0
e 81 259 96.0
e 81 91 96.0
e 81 301 54.0
e 81 202 63.0
e 81 78 39.0
e 81 260 73.0
e 81 316 21.0
e 81 49 66.0
e 81 214 5.0
e 81 77 35.0
e 85 57 6.0
e 85 76 84.0
e 85 187 16.0
e 85 125 66.0
e 85 55 26.0
e 85 41 2.0
e 85 48 15.0
e 85 109 96.0
e 85 52 92.0
e 85 99 62.0
e 85 197 70.0
e 85 94 77.0
e 85 223 88.0
e 85 244 61.0
e 85 292 27.0
e 85 152 36.0
e 85 49 19.0
e 85 196 19.0
e 85 169 99.0
e 85 13 2.0
e 85 308 6.0
e 85 66 75.0
e 85 126 55.0
e 85 23 69.0
e 85 8 84.0
e 85 47 11.0
e 88 189 2.0
e 89 167 1.0
e 91 311 65.0
e 91 166 87.0
e 91 222 49.0
e 91 289 42.0
e 91 135 21.0
e 91 70 42.0
e 91 274 7.0
e 91 273 75.0
e 91 287 38.0
e 91 209 75.0
e 91 8 64.0
e 91 98 72.0
e 91 108 83.0
e 91 306 22.0
e 91 180 41.0
e 91 120 58.0
e 91 305 77.0
e 91 186 82.0
e 91 43 52.0
e 91 268 19.0
e 91 71 82.0
e 91 165 70.0
e 91 97 7.0
e 91 318 1.0
e 91 145 11.0
e 91 89 10.0
e 93 140 78.0
e 93 159 92.0
e 93 152 89.0
e 93 215 56.0
e 93 106 72.0
e 93 40 56.0
e 93 183 100.0
e 93 253 58.0
e 93 47 56.0
e 93 143 49.0
e 93 309 8.0
e 93 197 67.0
e 93 251 90.0
e 93 110 23.0
e 93 96 12.0
e 93 101 23.0
e 93 41 40.0
e 93 166 70.0
e 93 68 42.0
e 93 222 15.0
e 93 42 20.0
e 93 224 39.0
e 93 10 54.0
e 93 237 4.0
e 93 188 6.0
e 93 153 55.0
e 94 224 58.0
e 94 207 19.0
e 94 149 20.0
e 94 167 77.0
e 94 169 31.0
e 94 290 75.0
e 94 163 52.0
e 94 112 65.0
e 94 303 14.0
e 94 305 9.0
e 94 301 40.0
e 94 95 45.0
e 94 259 50.0
e 94 115 62.0
e 94 5 94.0
e 94 124 66.0
e 94 143 32.0
e 94 131 5.0
e 94 211 87.0
e 94 24 18.0
e 94 34 82.0
e 94 60 52.0
e 94 187 89.0
e 94 147 22.0
e 94 250 49.0
e 97 249 5.0
e 97 192 5.0
e 97 188 36.0
e 98 306 4.0
e 100 35 6.0
e 101 16 100.0
e 101 275 96.0
e 101 73 26.0
e 101 251 6.0
e 101 187 44.0
e 101 192 90.0
e 101 287 2.0
e 101 52 7.0
e 101 84 70.0
e 101 145 19.0
e 101 317 46.0
e 101 154 33.0
e 101 85 94.0
e 101 306 16.0
e 101 201 60.0
e 101 220 79.0
e 101 34 56.0
e 101 196 4.0
e 101 175 56.0
e 101 239 20.0
e 101 151 94.0
e 101 308 85.0
e 101 191 82.0
e 101 309 44.0
e 102 39 11.0
e 104 164 78.0
e 104 205 10.0
e 104 9 26.0
e 104 129 92.0
e 104 145 37.0
e 104 200 55.0
e 104 280 86.0
e 104 146 17.0
e 104 7 87.0
e 104 130 56.0
e 104 89 38.0
e 104 225 80.0
e 104 263 50.0
e 104 81 31.0
e 104 60 83.0
e 104 182 42.0
e 104 250 27.0
e 104 195 11.0
e 104 149 63.0
e 104 137 87.0
e 104 210 12.0
e 104 28 26.0
e 104 295 48.0
e 104 209 63.0
e 104 98 9.0
e 104 110 13.0
e 105 168 1.0
e 108 53 6.0
e 108 240 2.0
e 111 13 2.0
e 113 77 45.0
e 113 107 74.0
e 113 244 34.0
e 113 90 12.0
e 113 104 39.0
e 113 126 51.0
e 113 153 18.0
e 113 141 22.0
e 113 174 83.0
e 113 60 99.0
e 113 176 68.0
e 113 72 48.0
e 113 108 8.0
e 113 61 36.0
e 113 30 52.0
e 113 296 90.0
e 113 88 23.0
e 113 252 63.0
e 113 183 86.0
e 113 130 84.0
e 113 51 96.0
e 113 314 85.0
e 113 251 16.0
e 113 8 11.0
e 113 164 37.0
e 117 138 3.0
e 118 187 8.0
e 118 305 1.0
e 118 208 6.0
e 118 267 10.0
e 119 290 1.0
e 121 218 16.0
e 121 211 50.0
e 121 135 11.0
e 121 140 18.0
e 121 259 1.0
e 121 212 2.0
e 121 74 38.0
e 121 230 29.0
e 121 118 30.0
e 121 236 1.0
e 121 87 38.0
e 121 40 41.0
e 122 28 17.0
e 123 264 10.0
e 124 130 23.0
e 124 126 7.0
e 124 0 15.0
e 124 260 21.0
e 127 318 1.0
e 129 219 1.0
e 129 15 55.0
e 129 198 3.0
e 130 7 17.0
e 130 166 18.0
e 130 190 24.0
e 131 186 1.0
e 132 126 24.0
e 132 202 23.0
e 132 119 1.0
e 132 228 6.0
e 132 17 20.0
e 133 74 8.0
e 133 247 11.0
e 133 176 62.0
e 134 115 1.0
e 137 258 67.0
e 137 107 9.0
e 137 315 7.0
e 141 23 47.0
e 141 153 5.0
e 142 267 1.0
e 142 265 1.0
e 148 253 5.0
e 154 282 11.0
e 155 181 5.0
e 155 265 22.0
e 155 65 7.0
e 155 46 9.0
e 155 231 24.0
e 155 171 13.0
e 157 107 1.0
e 159 222 23.0
e 159 91 11.0
e 159 67 72.0
e 159 273 5.0
e 160 206 30.0
e 160 91 100.0
e 160 313 100.0
e 160 46 27.0
e 160 161 21.0
e 160 194 80.0
e 160 97 67.0
e 160 178 39.0
e 160 181 1.0
e 160 66 43.0
e 160 53 86.0
e 160 172 91.0
e 160 22 16.0
e 160 235 25.0
e 160 186 97.0
e 160 9 44.0
e 160 54 44.0
e 160 89 94.0
e 160 7 43.0
e 160 195 35.0
e 160 201 97.0
e 160 127 7.0
e 160 214 20.0
e 160 70 64.0
e 160 83 98.0
e 160 26 82.0
e 162 109 4.0
e 162 105 8.0
e 162 156 2.0
e 164 119 8.0
e 164 65 7.0
e 169 12 21.0
e 169 215 9.0
e 169 55 20.0
e 169 157 1.0
e 169 170 11.0
e 172 36 1.0
e 172 211 76.0
e 172 250 7.0
e 173 235 77.0
e 173 281 6.0
e 173 252 90.0
e 173 202 78.0
e 173 183 64.0
e 173 313 39.0
e 173 143 100.0
e 173 178 12.0
e 173 69 14.0
e 173 121 55.0
e 173 290 43.0
e 173 192 50.0
e 173 205 60.0
e 173 287 15.0
e 173 174 92.0
e 173 222 1.0
e 173 315 70.0
e 173 166 84.0
e 173 9 12.0
e 173 23 25.0
e 173 209 51.0
e 173 305 81.0
e 173 300 96.0
e 173 241 24.0
e 173 294 43.0
e 173 71 61.0
e 173 299 50.0
e 174 312 10.0
e 176 169 80.0
e 176 289 51.0
e 176 165 51.0
e 176 215 94.0
e 176 25 15.0
e 176 149 27.0
e 176 50 3.0
e 176 83 44.0
e 176 161 54.0
e 176 69 72.0
e 176 217 61.0
e 176 189 54.0
e 176 183 64.0
e 176 49 4.0
e 176 145 2.0
e 176 106 78.0
e 176 20 28.0
e 176 162 28.0
e 176 177 60.0
e 176 85 55.0
e 176 296 95.0
e 176 297 71.0
e 176 34 94.0
e 176 180 75.0
e 177 188 1.0
e 177 73 19.0
e 177 106 84.0
e 177 225 49.0
e 177 67 18.0
e 177 26 9.0
e 177 55 45.0
e 177 18 42.0
e 177 42 27.0
e 177 5 85.0
e 177 286 76.0
e 177 59 72.0
e 177 254 6.0
e 177 53 4.0
e 177 226 1.0
e 177 68 84.0
e 177 172 34.0
e 177 25 11.0
e 177 74 79.0
e 177 233 23.0
e 177 315 28.0
e 177 253 67.0
e 177 36 36.0
e 177 97 49.0
e 180 245 35.0
e 180 300 75.0
e 180 289 5.0
e 180 130 49.0
e 180 6 5.0
e 180 113 75.0
e 180 263 6.0
e 180 304 95.0
e 180 47 39.0
e 180 187 52.0
e 180 131 83.0
e 180 215 31.0
e 180 25 15.0
e 180 141 39.0
e 180 28 100.0
e 180 222 62.0
e 180 182 50.0
e 180 248 8.0
e 180 132 68.0
e 180 217 93.0
e 180 37 73.0
e 180 220 88.0
e 180 126 63.0
e 180 51 47.0
e 184 55 12.0
e 188 202 6.0
e 188 242 30.0
e 188 253 3.0
e 188 269 21.0
e 188 156 25.0
e 188 270 20.0
e 188 96 3.0
e 188 123 27.0
e 188 315 29.0
e 188 218 35.0
e 188 24 2.0
e 191 37 4.0
e 191 292 33.0
e 191 25 40.0
e 191 296 58.0
e 191 98 83.0
e 191 1 11.0
e 191 129 33.0
e 191 20 82.0
e 191 305 93.0
e 191 164 58.0
e 191 53 85.0
e 191 105 59.0
e 191 181 79.0
e 191 140 53.0
e 191 266 1.0
e 191 303 75.0
e 191 315 15.0
e 191 210 14.0
e 191 204 15.0
e 191 312 22.0
e 191 167 26.0
e 191 175 31.0
e 191 232 95.0
e 191 160 17.0
e 192 51 10.0
e 192 73 1.0
e 192 60 10.0
e 198 77 8.0
e 198 205 2.0
e 203 248 53.0
e 203 306 4.0
e 203 18 5.0
e 203 189 3.0
e 205 75 4.0
e 205 287 36.0
e 205 182 32.0
e 205 90 21.0
e 205 93 58.0
e 205 219 96.0
e 205 315 52.0
e 205 161 54.0
e 205 113 80.0
e 205 83 27.0
e 205 86 16.0
e 205 74 91.0
e 205 266 5.0
e 205 229 16.0
e 205 239 79.0
e 205 267 19.0
e 205 245 85.0
e 205 135 23.0
e 205 48 42.0
e 205 17 94.0
e 205 190 93.0
e 205 118 89.0
e 205 76 11.0
e 205 281 72.0
e 207 255 96.0
e 207 227 59.0
e 207 278 46.0
e 207 165 88.0
e 207 125 73.0
e 207 236 10.0
e 207 37 88.0
e 207 92 54.0
e 207 49 9.0
e 207 24 72.0
e 207 263 72.0
e 207 29 48.0
e 207 85 72.0
e 207 158 71.0
e 207 230 22.0
e 207 198 45.0
e 207 218 28.0
e 207 80 85.0
e 207 300 4.0
e 207 308 85.0
e 207 294 98.0
e 207 154 81.0
e 207 268 46.0
e 207 250 26.0
e 207 296 39.0
e 210 32 1.0
e 211 48 69.0
e 211 256 24.0
e 211 313 53.0
e 211 118 83.0
e 211 264 22.0
e 211 231 31.0
e 211 26 54.0
e 211 225 82.0
e 211 260 80.0
e 211 240 27.0
e 211 212 67.0
e 211 214 48.0
e 211 164 45.0
e 211 254 65.0
e 211 304 17.0
e 211 200 33.0
e 211 174 45.0
e 211 318 15.0
e 211 63 96.0
e 211 78 82.0
e 211 159 66.0
e 211 208 13.0
e 211 85 77.0
e 216 160 15.0
e 216 232 28.0
e 216 14 35.0
e 216 115 7.0
e 216 167 63.0
e 216 85 7.0
e 216 163 48.0
e 216 79 88.0
e 216 251 82.0
e 216 65 100.0
e 216 126 94.0
e 216 302 58.0
e 216 295 99.0
e 216 298 88.0
e 216 55 97.0
e 216 252 12.0
e 216 64 70.0
e 216 283 8.0
e 216 71 82.0
e 216 242 62.0
e 216 0 79.0
e 216 15 75.0
e 216 111 7.0
e 216 9 45.0
e 216 66 47.0
e 216 49 11.0
e 220 38 20.0
e 220 258 84.0
e 220 281 2.0
e 225 50 3.0
e 225 190 4.0
e 225 209 10.0
e 225 186 21.0
e 226 112 28.0
e 226 176 53.0
e 226 73 12.0
e 226 258 57.0
e 226 254 13.0
e 226 296 21.0
e 226 220 7.0
e 226 45 42.0
e 226 22 39.0
e 226 66 2.0
e 226 162 48.0
e 226 151 39.0
e 227 281 5.0
e 227 129 10.0
e 227 265 19.0
e 227 262 22.0
e 227 28 84.0
e 234 197 95.0
e 234 317 43.0
e 234 292 31.0
e 234 151 71.0
e 234 242 70.0
e 234 250 61.0
e 234 11 69.0
e 234 297 8.0
e 234 203 89.0
e 234 239 35.0
e 234 128 88.0
e 234 220 8.0
e 234 63 66.0
e 234 34 61.0
e 234 228 22.0
e 234 50 56.0
e 234 83 35.0
e 234 19 6.0
e 234 139 14.0
e 234 305 7.0
e 234 165 33.0
e 234 45 3.0
e 234 215 29.0
e 234 254 95.0
e 234 77 52.0
e 236 268 74.0
e 236 266 6.0
e 236 214 3.0
e 238 207 87.0
e 238 244 12.0
e 240 104 41.0
e 240 74 1.0
e 241 206 5.0
e 243 41 2.0
e 244 50 17.0
e 244 163 13.0
e 244 300 7.0
e 246 300 15.0
e 246 26 23.0
e 246 155 1.0
e 246 62 17.0
e 246 273 24.0
e 246 32 23.0
e 248 245 17.0
e 248 226 44.0
e 248 280 63.0
e 248 64 8.0
e 248 201 73.0
e 248 191 78.0
e 248 256 1.0
e 248 236 33.0
e 248 284 28.0
e 248 151 43.0
e 248 181 42.0
e 248 257 30.0
e 248 299 52.0
e 248 89 75.0
e 248 144 92.0
e 248 211 12.0
e 248 59 2.0
e 248 153 66.0
e 248 175 20.0
e 248 107 64.0
e 248 176 16.0
e 248 274 90.0
e 248 269 75.0
e 248 222 83.0
e 256 40 9.0
e 257 39 18.0
e 257 233 14.0
e 257 36 7.0
e 257 309 17.0
e 258 259 54.0
e 258 270 65.0
e 258 109 62.0
e 258 52 51.0
e 258 169 55.0
e 258 124 23.0
e 258 289 80.0
e 258 147 71.0
e 258 175 57.0
e 258 115 67.0
e 258 1 36.0
e 258 264 72.0
e 258 55 25.0
e 258 186 58.0
e 258 40 10.0
e 258 204 13.0
e 258 312 46.0
e 258 104 15.0
e 258 221 46.0
e 258 156 35.0
e 258 188 14.0
e 258 23 22.0
e 258 236 37.0
e 258 80 30.0
e 259 240 3.0
e 259 128 5.0
e 259 312 17.0
e 261 144 7.0
e 261 225 1.0
e 261 59 3.0
e 264 203 4.0
e 268 239 89.0
e 268 139 64.0
e 268 70 24.0
e 268 14 100.0
e 268 0 89.0
e 268 61 43.0
e 268 23 55.0
e 268 228 57.0
e 268 163 15.0
e 268 88 11.0
e 268 126 58.0
e 268 121 25.0
e 268 311 42.0
e 268 251 60.0
e 268 19 48.0
e 268 24 44.0
e 268 288 55.0
e 268 203 56.0
e 268 282 48.0
e 268 283 50.0
e 268 15 23.0
e 268 34 51.0
e 268 90 73.0
e 268 300 82.0
e 271 148 1.0
e 274 23 12.0
e 274 252 20.0
e 274 192 15.0
e 274 7 26.0
e 274 134 20.0
e 274 200 40.0
e 274 127 78.0
e 274 148 40.0
e 274 175 53.0
e 274 170 21.0
e 274 216 57.0
e 274 129 97.0
e 274 275 92.0
e 274 29 92.0
e 274 117 43.0
e 274 115 15.0
e 274 10 40.0
e 274 24 19.0
e 274 133 6.0
e 274 135 46.0
e 274 69 38.0
e 274 53 56.0
e 274 47 16.0
e 276 225 5.0
e 276 175 1.0
e 277 281 9.0
e 277 38 9.0
e 277 225 16.0
e 277 243 16.0
e 277 249 14.0
e 279 44 6.0
e 279 15 18.0
e 279 125 1.0
e 282 28 8.0
e 282 71 12.0
e 283 294 24.0
e 283 155 5.0
e 283 210 11.0
e 283 140 19.0
e 283 185 19.0
e 286 269 3.0
e 286 84 7.0
e 286 104 34.0
e 287 194 48.0
e 287 72 2.0
e 287 237 79.0
e 287 195 88.0
e 287 223 71.0
e 287 251 2.0
e 287 216 41.0
e 287 50 99.0
e 287 145 73.0
e 287 52 36.0
e 287 255 6.0
e 287 54 67.0
e 287 206 52.0
e 287 210 40.0
e 287 148 5.0
e 287 225 93.0
e 287 168 40.0
e 287 196 89.0
e 287 116 26.0
e 287 243 85.0
e 287 56 19.0
e 287 213 49.0
e 287 304 94.0
e 288 64 5.0
e 295 84 3.0
e 301 25 57.0
e 301 73 80.0
e 301 125 95.0
e 301 111 24.0
e 301 302 62.0
e 301 102 46.0
e 301 300 66.0
e 301 18 65.0
e 301 68 38.0
e 301 28 43.0
e 301 241 39.0
e 301 211 66.0
e 301 259 59.0
e 301 291 72.0
e 301 37 20.0
e 301 177 29.0
e 301 166 3.0
e 301 245 76.0
e 301 138 34.0
e 301 247 89.0
e 301 65 36.0
e 301 59 24.0
e 301 146 65.0
e 301 58 60.0
e 301 62 91.0
e 302 203 3.0
e 302 87 24.0
e 304 26 22.0
e 304 187 74.0
e 304 109 69.0
e 304 156 23.0
e 304 75 77.0
e 304 29 3.0
e 304 299 66.0
e 304 308 83.0
e 304 274 86.0
e 304 146 80.0
e 304 166 75.0
e 304 188 96.0
e 304 1 12.0
e 304 27 78.0
e 304 185 56.0
e 304 155 8.0
e 304 17 12.0
e 304 2 60.0
e 304 113 55.0
e 304 284 26.0
e 304 30 48.0
e 307 300 19.0
e 307 221 1.0
e 307 98 64.0
e 307 191 30.0
e 307 308 45.0
e 307 260 63.0
e 307 18 3.0
e 307 12 29.0
e 307 113 1.0
e 307 99 66.0
e 307 43 49.0
e 307 194 10.0
e 307 210 60.0
e 307 317 52.0
e 307 204 23.0
e 307 62 61.0
e 307 195 98.0
e 307 44 60.0
e 307 111 96.0
e 307 72 18.0
e 307 263 82.0
e 307 226 54.0
e 307 211 38.0
e 307 47 14.0
e 313 117 31.0
e 313 74 6.0
e 313 252 92.0
e 313 29 42.0
e 313 148 96.0
e 313 195 35.0
e 313 203 5.0
e 313 26 3.0
e 313 110 5.0
e 313 216 12.0
e 313 309 81.0
e 313 94 83.0
e 313 54 80.0
e 313 258 28.0
e 313 27 56.0
e 313 290 17.0
e 313 143 89.0
e 313 281 87.0
e 313 262 89.0
e 313 196 58.0
e 313 132 89.0
e 316 61 16.0
e 316 93 7.0
e 316 302 23.0
e 316 94 13.0
e 316 51 64.0
e 316 42 62.0
e 316 272 55.0
e 316 32 80.0
e 316 52 2.0
e 316 213 41.0
e 316 228 48.0
e 316 163 1.0
e 316 157 100.0
e 316 258 6.0
e 316 138 73.0
e 316 257 60.0
e 316 199 30.0
e 316 142 51.0
e 316 97 70.0
e 316 92 23.0
e 316 318 75.0
e 316 174 85.0
e 316 27 75.0
e 316 310 64.0
e 316 63 74.0
e 316 255 17.0
e 319 156 2.0
